p cnf 101 345
3 -1 0
3 2 0
1 -2 -3 0
6 -4 0
6 5 0
4 -5 -6 0
-7 3 0
-7 -6 0
-3 6 7 0
-10 8 0
-10 9 0
-8 -9 10 0
11 5 0
11 10 0
-5 -10 -11 0
13 -12 0
13 2 0
12 -2 -13 0
-13 -14 -15 0
13 14 -15 0
-13 14 15 0
13 -14 15 0
16 -11 0
16 15 0
11 -15 -16 0
17 -11 0
17 -11 0
11 -17 0
19 -9 0
19 14 0
9 -14 -19 0
-20 -18 0
-20 19 0
18 -19 20 0
-21 -4 0
-21 -20 0
4 20 21 0
22 17 0
22 21 0
-17 -21 -22 0
-23 -16 0
-23 22 0
16 -22 23 0
7 23 -24 0
-7 -23 -24 0
7 -23 24 0
-7 23 24 0
-25 -19 0
-25 -8 0
19 8 25 0
26 -25 0
26 -18 0
25 18 -26 0
-26 -9 -27 0
26 9 -27 0
-26 9 27 0
26 -9 27 0
-28 -27 0
-28 -6 0
27 6 28 0
29 28 0
29 -12 0
-28 12 -29 0
29 13 -30 0
-29 -13 -30 0
29 -13 30 0
-29 13 30 0
-20 9 -31 0
20 -9 -31 0
-20 -9 31 0
20 9 31 0
32 -30 0
32 -31 0
30 31 -32 0
-33 -16 0
-33 -21 0
16 21 33 0
34 -32 0
34 -33 0
32 33 -34 0
-1 -35 -36 0
1 35 -36 0
-1 35 36 0
1 -35 36 0
-27 36 -37 0
27 -36 -37 0
-27 -36 37 0
27 36 37 0
-38 14 0
-38 -37 0
-14 37 38 0
39 17 0
39 -3 0
-17 3 -39 0
40 -38 0
40 -39 0
38 39 -40 0
-41 14 0
-41 -1 0
-14 1 41 0
-42 8 0
-42 -9 0
-8 9 42 0
-43 41 0
-43 -42 0
-41 42 43 0
-43 44 -45 0
43 -44 -45 0
-43 -44 45 0
43 44 45 0
46 9 0
46 -45 0
-9 45 -46 0
47 -25 0
47 -8 0
25 8 -47 0
48 -46 0
48 47 0
46 -47 -48 0
40 48 -49 0
-40 -48 -49 0
40 -48 49 0
-40 48 49 0
50 -34 0
50 -49 0
34 49 -50 0
52 51 0
52 -41 0
-51 41 -52 0
-52 53 -54 0
52 -53 -54 0
-52 -53 54 0
52 53 54 0
55 13 0
55 5 0
-13 -5 -55 0
-56 -12 0
-56 -55 0
12 55 56 0
57 56 0
57 13 0
-56 -13 -57 0
-58 -54 0
-58 -57 0
54 57 58 0
10 -37 -59 0
-10 37 -59 0
10 37 59 0
-10 -37 59 0
-60 59 0
-60 -41 0
-59 41 60 0
58 60 -61 0
-58 -60 -61 0
58 -60 61 0
-58 60 61 0
-62 50 0
-62 61 0
-50 -61 62 0
-24 -62 -63 0
24 62 -63 0
-24 62 63 0
24 -62 63 0
64 -12 0
64 -59 0
12 59 -64 0
-65 -63 0
-65 64 0
63 -64 65 0
66 10 0
66 30 0
-10 -30 -66 0
15 -14 -67 0
-15 14 -67 0
15 14 67 0
-15 -14 67 0
-68 -67 0
-68 -44 0
67 44 68 0
-69 -68 0
-69 -67 0
68 67 69 0
-70 -69 0
-70 1 0
69 -1 70 0
66 70 -71 0
-66 -70 -71 0
66 -70 71 0
-66 70 71 0
72 -27 0
72 4 0
27 -4 -72 0
73 44 0
73 -13 0
-44 13 -73 0
-21 -73 -74 0
21 73 -74 0
-21 73 74 0
21 -73 74 0
75 -74 0
75 -35 0
74 35 -75 0
-72 -75 -76 0
72 75 -76 0
-72 75 76 0
72 -75 76 0
77 -20 0
77 51 0
20 -51 -77 0
78 68 0
78 77 0
-68 -77 -78 0
-79 -41 0
-79 -78 0
41 78 79 0
80 -44 0
80 11 0
44 -11 -80 0
21 -14 -81 0
-21 14 -81 0
21 14 81 0
-21 -14 81 0
80 81 -82 0
-80 -81 -82 0
80 -81 82 0
-80 81 82 0
-83 82 0
-83 27 0
-82 -27 83 0
-84 79 0
-84 83 0
-79 -83 84 0
-85 76 0
-85 -84 0
-76 84 85 0
-86 -71 0
-86 85 0
71 -85 86 0
51 43 -87 0
-51 -43 -87 0
51 -43 87 0
-51 43 87 0
88 -68 0
88 3 0
68 -3 -88 0
-88 89 -90 0
88 -89 -90 0
-88 -89 90 0
88 89 90 0
-91 -12 0
-91 20 0
12 -20 91 0
92 91 0
92 -42 0
-91 42 -92 0
-90 -92 -93 0
90 92 -93 0
-90 92 93 0
90 -92 93 0
94 -87 0
94 -93 0
87 93 -94 0
95 -12 0
95 -73 0
12 73 -95 0
96 8 0
96 -35 0
-8 35 -96 0
43 -96 -97 0
-43 96 -97 0
43 96 97 0
-43 -96 97 0
95 97 -98 0
-95 -97 -98 0
95 -97 98 0
-95 97 98 0
99 -94 0
99 -98 0
94 98 -99 0
-86 -99 -100 0
86 99 -100 0
-86 99 100 0
86 -99 100 0
65 100 -101 0
-65 -100 -101 0
65 -100 101 0
-65 100 101 0
-42 3 77 0
-75 -2 0
-47 -36 -54 43 -15 0
94 -14 -71 0
-9 40 -27 0
-54 -21 32 -79 36 59 0
88 -19 0
-18 -50 -76 -70 0
92 -59 -32 0
-24 22 35 0
-11 20 70 0
-101 -51 -22 67 -53 0
85 -23 22 -4 91 0
-91 -39 0
36 -94 69 -79 14 -29 0
62 -6 82 20 0
43 26 -67 0
18 4 99 96 -81 -32 0
82 -100 28 0
-13 35 62 0
-81 68 0
92 71 34 54 99 0
-11 -22 98 -90 0
69 74 54 -86 -95 0
72 -52 -60 0
-22 -101 14 0
-37 -85 39 72 63 -49 0
-76 73 0
-23 37 0
-41 73 0
24 -68 -35 -31 0
16 9 -94 -52 27 0
-20 41 87 -6 -47 0
53 -32 -42 0
-26 10 -80 41 0
-35 42 9 0
-63 46 -58 0
-101 62 11 18 7 0
-52 -78 91 89 58 63 0
-39 50 0
29 -96 0
43 10 -91 3 86 0
-13 71 2 -97 0
-48 -91 -60 0
80 67 -68 48 0
-17 -94 0
-92 69 -1 -18 -100 0
96 1 -25 -52 0
-8 44 -98 0
-98 53 -72 38 -50 -74 0
-60 28 -31 -48 0
58 -38 -21 82 0
56 -70 83 -99 91 0
7 6 93 -79 28 0
-2 63 -62 0
-92 75 -71 -70 0
-68 -13 0
101 0
